(set-logic QF_LRA)
(declare-fun X0 () Real )
(declare-fun Y0 () Real )
(declare-fun X1 () Real )
(declare-fun Y1 () Real )
(declare-fun X2 () Real )
(declare-fun Y2 () Real )
(declare-fun X3 () Real )
(declare-fun Y3 () Real )
(declare-fun X4 () Real )
(declare-fun Y4 () Real )
(declare-fun X5 () Real )
(declare-fun Y5 () Real )
(declare-fun X6 () Real )
(declare-fun Y6 () Real )
(declare-fun X7 () Real )
(declare-fun Y7 () Real )
(declare-fun X8 () Real )
(declare-fun Y8 () Real )
(declare-fun Z () Real )
(declare-fun k () Real )
(assert (let
(( $goal (>= Z k) ))
(let
((
$phi ( and 
( or ( <= ( + X0 21 ) X1 )  ( <= ( + X1 87 ) X0 )  ( <= ( + Y0 32 ) Y1 )  ( <= ( + Y1 55 ) Y0 )  )
( or ( <= ( + X0 21 ) X2 )  ( <= ( + X2 46 ) X0 )  ( <= ( + Y0 32 ) Y2 )  ( <= ( + Y2 61 ) Y0 )  )
( or ( <= ( + X0 21 ) X3 )  ( <= ( + X3 89 ) X0 )  ( <= ( + Y0 32 ) Y3 )  ( <= ( + Y3 42 ) Y0 )  )
( or ( <= ( + X0 21 ) X4 )  ( <= ( + X4 16 ) X0 )  ( <= ( + Y0 32 ) Y4 )  ( <= ( + Y4 97 ) Y0 )  )
( or ( <= ( + X0 21 ) X5 )  ( <= ( + X5 39 ) X0 )  ( <= ( + Y0 32 ) Y5 )  ( <= ( + Y5 56 ) Y0 )  )
( or ( <= ( + X0 21 ) X6 )  ( <= ( + X6 63 ) X0 )  ( <= ( + Y0 32 ) Y6 )  ( <= ( + Y6 24 ) Y0 )  )
( or ( <= ( + X0 21 ) X7 )  ( <= ( + X7 54 ) X0 )  ( <= ( + Y0 32 ) Y7 )  ( <= ( + Y7 26 ) Y0 )  )
( or ( <= ( + X0 21 ) X8 )  ( <= ( + X8 11 ) X0 )  ( <= ( + Y0 32 ) Y8 )  ( <= ( + Y8 10 ) Y0 )  )
( or ( <= ( + X1 87 ) X2 )  ( <= ( + X2 46 ) X1 )  ( <= ( + Y1 55 ) Y2 )  ( <= ( + Y2 61 ) Y1 )  )
( or ( <= ( + X1 87 ) X3 )  ( <= ( + X3 89 ) X1 )  ( <= ( + Y1 55 ) Y3 )  ( <= ( + Y3 42 ) Y1 )  )
( or ( <= ( + X1 87 ) X4 )  ( <= ( + X4 16 ) X1 )  ( <= ( + Y1 55 ) Y4 )  ( <= ( + Y4 97 ) Y1 )  )
( or ( <= ( + X1 87 ) X5 )  ( <= ( + X5 39 ) X1 )  ( <= ( + Y1 55 ) Y5 )  ( <= ( + Y5 56 ) Y1 )  )
( or ( <= ( + X1 87 ) X6 )  ( <= ( + X6 63 ) X1 )  ( <= ( + Y1 55 ) Y6 )  ( <= ( + Y6 24 ) Y1 )  )
( or ( <= ( + X1 87 ) X7 )  ( <= ( + X7 54 ) X1 )  ( <= ( + Y1 55 ) Y7 )  ( <= ( + Y7 26 ) Y1 )  )
( or ( <= ( + X1 87 ) X8 )  ( <= ( + X8 11 ) X1 )  ( <= ( + Y1 55 ) Y8 )  ( <= ( + Y8 10 ) Y1 )  )
( or ( <= ( + X2 46 ) X3 )  ( <= ( + X3 89 ) X2 )  ( <= ( + Y2 61 ) Y3 )  ( <= ( + Y3 42 ) Y2 )  )
( or ( <= ( + X2 46 ) X4 )  ( <= ( + X4 16 ) X2 )  ( <= ( + Y2 61 ) Y4 )  ( <= ( + Y4 97 ) Y2 )  )
( or ( <= ( + X2 46 ) X5 )  ( <= ( + X5 39 ) X2 )  ( <= ( + Y2 61 ) Y5 )  ( <= ( + Y5 56 ) Y2 )  )
( or ( <= ( + X2 46 ) X6 )  ( <= ( + X6 63 ) X2 )  ( <= ( + Y2 61 ) Y6 )  ( <= ( + Y6 24 ) Y2 )  )
( or ( <= ( + X2 46 ) X7 )  ( <= ( + X7 54 ) X2 )  ( <= ( + Y2 61 ) Y7 )  ( <= ( + Y7 26 ) Y2 )  )
( or ( <= ( + X2 46 ) X8 )  ( <= ( + X8 11 ) X2 )  ( <= ( + Y2 61 ) Y8 )  ( <= ( + Y8 10 ) Y2 )  )
( or ( <= ( + X3 89 ) X4 )  ( <= ( + X4 16 ) X3 )  ( <= ( + Y3 42 ) Y4 )  ( <= ( + Y4 97 ) Y3 )  )
( or ( <= ( + X3 89 ) X5 )  ( <= ( + X5 39 ) X3 )  ( <= ( + Y3 42 ) Y5 )  ( <= ( + Y5 56 ) Y3 )  )
( or ( <= ( + X3 89 ) X6 )  ( <= ( + X6 63 ) X3 )  ( <= ( + Y3 42 ) Y6 )  ( <= ( + Y6 24 ) Y3 )  )
( or ( <= ( + X3 89 ) X7 )  ( <= ( + X7 54 ) X3 )  ( <= ( + Y3 42 ) Y7 )  ( <= ( + Y7 26 ) Y3 )  )
( or ( <= ( + X3 89 ) X8 )  ( <= ( + X8 11 ) X3 )  ( <= ( + Y3 42 ) Y8 )  ( <= ( + Y8 10 ) Y3 )  )
( or ( <= ( + X4 16 ) X5 )  ( <= ( + X5 39 ) X4 )  ( <= ( + Y4 97 ) Y5 )  ( <= ( + Y5 56 ) Y4 )  )
( or ( <= ( + X4 16 ) X6 )  ( <= ( + X6 63 ) X4 )  ( <= ( + Y4 97 ) Y6 )  ( <= ( + Y6 24 ) Y4 )  )
( or ( <= ( + X4 16 ) X7 )  ( <= ( + X7 54 ) X4 )  ( <= ( + Y4 97 ) Y7 )  ( <= ( + Y7 26 ) Y4 )  )
( or ( <= ( + X4 16 ) X8 )  ( <= ( + X8 11 ) X4 )  ( <= ( + Y4 97 ) Y8 )  ( <= ( + Y8 10 ) Y4 )  )
( or ( <= ( + X5 39 ) X6 )  ( <= ( + X6 63 ) X5 )  ( <= ( + Y5 56 ) Y6 )  ( <= ( + Y6 24 ) Y5 )  )
( or ( <= ( + X5 39 ) X7 )  ( <= ( + X7 54 ) X5 )  ( <= ( + Y5 56 ) Y7 )  ( <= ( + Y7 26 ) Y5 )  )
( or ( <= ( + X5 39 ) X8 )  ( <= ( + X8 11 ) X5 )  ( <= ( + Y5 56 ) Y8 )  ( <= ( + Y8 10 ) Y5 )  )
( or ( <= ( + X6 63 ) X7 )  ( <= ( + X7 54 ) X6 )  ( <= ( + Y6 24 ) Y7 )  ( <= ( + Y7 26 ) Y6 )  )
( or ( <= ( + X6 63 ) X8 )  ( <= ( + X8 11 ) X6 )  ( <= ( + Y6 24 ) Y8 )  ( <= ( + Y8 10 ) Y6 )  )
( or ( <= ( + X7 54 ) X8 )  ( <= ( + X8 11 ) X7 )  ( <= ( + Y7 26 ) Y8 )  ( <= ( + Y8 10 ) Y7 )  )
( >= X0 0)
( <= ( + X0 21) Z)
( >= Y0 0)
( <= ( + Y0 32 ) 100)
( >= X1 0)
( <= ( + X1 87) Z)
( >= Y1 0)
( <= ( + Y1 55 ) 100)
( >= X2 0)
( <= ( + X2 46) Z)
( >= Y2 0)
( <= ( + Y2 61 ) 100)
( >= X3 0)
( <= ( + X3 89) Z)
( >= Y3 0)
( <= ( + Y3 42 ) 100)
( >= X4 0)
( <= ( + X4 16) Z)
( >= Y4 0)
( <= ( + Y4 97 ) 100)
( >= X5 0)
( <= ( + X5 39) Z)
( >= Y5 0)
( <= ( + Y5 56 ) 100)
( >= X6 0)
( <= ( + X6 63) Z)
( >= Y6 0)
( <= ( + Y6 24 ) 100)
( >= X7 0)
( <= ( + X7 54) Z)
( >= Y7 0)
( <= ( + Y7 26 ) 100)
( >= X8 0)
( <= ( + X8 11) Z)
( >= Y8 0)
( <= ( + Y8 10 ) 100)
) )
)(=> $phi $goal))))